TERM = { '.', 's(5)', 's(2)', 's(4)', 'in_1', 'local_0', 'local_1', 'in_2', 'in_3', 's(6)', 's(1)', 's(0)', 's(7)', 's(3)', 'in_0'};
null = '.';
s = 14;
n = 9;
ndeps = 5;
max_registers_sz = 5;
NR = 2;
registers = [|'local_0', 'in_0', |'local_1', 'in_3'|];
dependencies = [|'i32.load_1', 'i32.store_5', |'i32.store_5', 'i32.load16_s_7', |'call[function_index(0)]_8', 'i32.load16_s_11', |'i32.load16_s_3', 'i32.store_5', |'i32.load16_s_7', 'call[function_index(0)]_8'|];
GET_ENUM = { GET1, GET2, GET3, GET4, GET5, GET6, GET7};
SET_ENUM = { SET1, SET2, SET3, SET4, SET5, SET6, SET7};
TEE_ENUM = { TEE1, TEE2, TEE3, TEE4, TEE5, TEE6, TEE7};
N = 9;
OP = { 'i32.add_0', 'i32.sub_0', 'call[function_index(0)]_8', 'i32.load_1', 'i32.sub_1', 'i32.load16_s_3', 'i32.store_5', 'i32.load16_s_7', 'i32.load16_s_11' };
in_ops = [2, 2, 0, 1, 2, 1, 2, 1, 1 ];
out_ops = [1, 1, 1, 1, 1, 1, 0, 1, 1 ];
in1 = ['s(5)', 's(6)', '.', 'in_1', 's(0)', 's(1)', 'local_1', 'in_3', 'in_3' ];
in2 = ['s(4)', 's(3)', '.', '.', 'in_2', '.', 's(2)', '.', '.' ];
in3 = ['.', '.', '.', '.', '.', '.', '.', '.', '.' ];
out1 = ['s(6)', 's(7)', 's(4)', 's(0)', 's(1)', 's(2)', '.', 's(3)', 's(5)' ];
out2 = ['.', '.', '.', '.', '.', '.', '.', '.', '.' ];
out3 = ['.', '.', '.', '.', '.', '.', '.', '.', '.' ];
comm = [true, false, false, false, false, false, false, false, false ];
gas = [1, 1, 1, 1, 1, 1, 1, 1, 1 ];
sz = [1, 1, 1, 1, 1, 1, 1, 1, 1 ];
stor = [false, false, true, false, false, false, true, false, false ];
lb = [ 1, 1, 1, 1, 1, 1, 1, 1, 1 ];
ub = [ 14, 14, 14, 14, 14, 14, 14, 14, 14 ];
startstack = [ 'in_0', 'in_1', 'in_2', 'in_3', null, null, null, null, null ];
endstack = [ 's(7)', null, null, null, null, null, null, null, null ];
